g3 0 1 0	# problem tls7
 345 154 1 0 56	# vars, constraints, objectives, ranges, eqns
 7 0	# nonlinear constraints, objectives
 0 0	# network constraints: nonlinear, linear
 56 0 0	# nonlinear vars in constraints, objectives, both
 0 0 0 1	# linear network variables; functions; arith, flags
 289 0 0 7 0	# discrete variables: binary, integer, nonlinear (b,c,o)
 2185 72	# nonzeros in Jacobian, gradients
 4 4	# max name lengths: constraints, variables
 0 0 0 0 0	# common exprs: b,c,o,c1,o1
b
2 1
2 1
2 1
2 1
2 1
2 1
2 1
2 1
2 1
2 1
2 1
2 1
2 1
2 1
2 1
2 1
2 1
2 1
2 1
2 1
2 1
2 1
2 1
2 1
2 1
2 1
2 1
2 1
2 1
2 1
2 1
2 1
2 1
2 1
2 1
2 1
2 1
2 1
2 1
2 1
2 1
2 1
2 1
2 1
2 1
2 1
2 1
2 1
2 1
0 1 100
0 1 100
0 1 100
0 1 100
0 1 100
0 1 100
0 1 100
0 0 1
0 0 1
0 0 1
0 0 1
0 0 1
0 0 1
0 0 1
0 0 1
0 0 1
0 0 1
0 0 1
0 0 1
0 0 1
0 0 1
0 0 1
0 0 1
0 0 1
0 0 1
0 0 1
0 0 1
0 0 1
0 0 1
0 0 1
0 0 1
0 0 1
0 0 1
0 0 1
0 0 1
0 0 1
0 0 1
0 0 1
0 0 1
0 0 1
0 0 1
0 0 1
0 0 1
0 0 1
0 0 1
0 0 1
0 0 1
0 0 1
0 0 1
0 0 1
0 0 1
0 0 1
0 0 1
0 0 1
0 0 1
0 0 1
0 0 1
0 0 1
0 0 1
0 0 1
0 0 1
0 0 1
0 0 1
0 0 1
0 0 1
0 0 1
0 0 1
0 0 1
0 0 1
0 0 1
0 0 1
0 0 1
0 0 1
0 0 1
0 0 1
0 0 1
0 0 1
0 0 1
0 0 1
0 0 1
0 0 1
0 0 1
0 0 1
0 0 1
0 0 1
0 0 1
0 0 1
0 0 1
0 0 1
0 0 1
0 0 1
0 0 1
0 0 1
0 0 1
0 0 1
0 0 1
0 0 1
0 0 1
0 0 1
0 0 1
0 0 1
0 0 1
0 0 1
0 0 1
0 0 1
0 0 1
0 0 1
0 0 1
0 0 1
0 0 1
0 0 1
0 0 1
0 0 1
0 0 1
0 0 1
0 0 1
0 0 1
0 0 1
0 0 1
0 0 1
0 0 1
0 0 1
0 0 1
0 0 1
0 0 1
0 0 1
0 0 1
0 0 1
0 0 1
0 0 1
0 0 1
0 0 1
0 0 1
0 0 1
0 0 1
0 0 1
0 0 1
0 0 1
0 0 1
0 0 1
0 0 1
0 0 1
0 0 1
0 0 1
0 0 1
0 0 1
0 0 1
0 0 1
0 0 1
0 0 1
0 0 1
0 0 1
0 0 1
0 0 1
0 0 1
0 0 1
0 0 1
0 0 1
0 0 1
0 0 1
0 0 1
0 0 1
0 0 1
0 0 1
0 0 1
0 0 1
0 0 1
0 0 1
0 0 1
0 0 1
0 0 1
0 0 1
0 0 1
0 0 1
0 0 1
0 0 1
0 0 1
0 0 1
0 0 1
0 0 1
0 0 1
0 0 1
0 0 1
0 0 1
0 0 1
0 0 1
0 0 1
0 0 1
0 0 1
0 0 1
0 0 1
0 0 1
0 0 1
0 0 1
0 0 1
0 0 1
0 0 1
0 0 1
0 0 1
0 0 1
0 0 1
0 0 1
0 0 1
0 0 1
0 0 1
0 0 1
0 0 1
0 0 1
0 0 1
0 0 1
0 0 1
0 0 1
0 0 1
0 0 1
0 0 1
0 0 1
0 0 1
0 0 1
0 0 1
0 0 1
0 0 1
0 0 1
0 0 1
0 0 1
0 0 1
0 0 1
0 0 1
0 0 1
0 0 1
0 0 1
0 0 1
0 0 1
0 0 1
0 0 1
0 0 1
0 0 1
0 0 1
0 0 1
0 0 1
0 0 1
0 0 1
0 0 1
0 0 1
0 0 1
0 0 1
0 0 1
0 0 1
0 0 1
0 0 1
0 0 1
0 0 1
0 0 1
0 0 1
0 0 1
0 0 1
0 0 1
0 0 1
0 0 1
0 0 1
0 0 1
0 0 1
0 0 1
0 0 1
0 0 1
0 0 1
0 0 1
0 0 1
0 0 1
0 0 1
0 0 1
0 0 1
0 0 1
0 0 1
0 0 1
0 0 1
0 0 1
0 0 1
0 0 1
0 0 1
0 0 1
0 0 1
0 0 1
0 0 1
0 0 1
0 0 1
0 0 1
0 0 1
0 0 1
0 0 1
0 0 1
0 0 1
0 0 1
0 0 1
0 0 1
0 0 1
0 0 1
x56
0 1
1 1
2 1
3 1
4 1
5 1
6 1
7 1
8 1
9 1
10 1
11 1
12 1
13 1
14 1
15 1
16 1
17 1
18 1
19 1
20 1
21 1
22 1
23 1
24 1
25 1
26 1
27 1
28 1
29 1
30 1
31 1
32 1
33 1
34 1
35 1
36 1
37 1
38 1
39 1
40 1
41 1
42 1
43 1
44 1
45 1
46 1
47 1
48 1
49 1
50 1
51 1
52 1
53 1
54 1
55 1
r
1 -15
1 -18
1 -22
1 -12
1 -15
1 -19
1 -13
1 3.4e3
1 3.4e3
1 3.4e3
1 3.4e3
1 3.4e3
1 3.4e3
1 3.4e3
1 -3.2e3
1 -3.2e3
1 -3.2e3
1 -3.2e3
1 -3.2e3
1 -3.2e3
1 -3.2e3
1 6
1 6
1 6
1 6
1 6
1 6
1 6
1 0
1 0
1 0
1 0
1 0
1 0
1 0
1 0
1 0
1 0
1 0
1 0
1 0
1 0
4 1
4 1
4 1
4 1
4 1
4 1
4 1
1 1
1 1
1 1
1 1
1 1
1 1
1 1
4 1
4 1
4 1
4 1
4 1
4 1
4 1
4 1
4 1
4 1
4 1
4 1
4 1
4 1
4 1
4 1
4 1
4 1
4 1
4 1
4 1
4 1
4 1
4 1
4 1
4 1
4 1
4 1
4 1
4 1
4 1
4 1
4 1
4 1
4 1
4 1
4 1
4 1
4 1
4 1
4 1
4 1
4 1
4 1
4 1
4 1
4 1
4 1
4 1
1 1
1 1
1 1
1 1
1 1
1 1
1 1
1 1
1 1
1 1
1 1
1 1
1 1
1 1
1 1
1 1
1 1
1 1
1 1
1 1
1 1
1 1
1 1
1 1
1 1
1 1
1 1
1 1
1 1
1 1
1 1
1 1
1 1
1 1
1 1
1 1
1 1
1 1
1 1
1 1
1 1
1 1
1 1
1 1
1 1
1 1
1 1
1 1
1 1
C0
o16
o54
7
o39
o2
v49
v0
o39
o2
v50
v1
o39
o2
v51
v2
o39
o2
v52
v3
o39
o2
v53
v4
o39
o2
v54
v5
o39
o2
v55
v6
C1
o16
o54
7
o39
o2
v49
v7
o39
o2
v50
v8
o39
o2
v51
v9
o39
o2
v52
v10
o39
o2
v53
v11
o39
o2
v54
v12
o39
o2
v55
v13
C2
o16
o54
7
o39
o2
v49
v14
o39
o2
v50
v15
o39
o2
v51
v16
o39
o2
v52
v17
o39
o2
v53
v18
o39
o2
v54
v19
o39
o2
v55
v20
C3
o16
o54
7
o39
o2
v49
v21
o39
o2
v50
v22
o39
o2
v51
v23
o39
o2
v52
v24
o39
o2
v53
v25
o39
o2
v54
v26
o39
o2
v55
v27
C4
o16
o54
7
o39
o2
v49
v28
o39
o2
v50
v29
o39
o2
v51
v30
o39
o2
v52
v31
o39
o2
v53
v32
o39
o2
v54
v33
o39
o2
v55
v34
C5
o16
o54
7
o39
o2
v49
v35
o39
o2
v50
v36
o39
o2
v51
v37
o39
o2
v52
v38
o39
o2
v53
v39
o39
o2
v54
v40
o39
o2
v55
v41
C6
o16
o54
7
o39
o2
v49
v42
o39
o2
v50
v43
o39
o2
v51
v44
o39
o2
v52
v45
o39
o2
v53
v46
o39
o2
v54
v47
o39
o2
v55
v48
C7
n0
C8
n0
C9
n0
C10
n0
C11
n0
C12
n0
C13
n0
C14
n0
C15
n0
C16
n0
C17
n0
C18
n0
C19
n0
C20
n0
C21
n0
C22
n0
C23
n0
C24
n0
C25
n0
C26
n0
C27
n0
C28
n0
C29
n0
C30
n0
C31
n0
C32
n0
C33
n0
C34
n0
C35
n0
C36
n0
C37
n0
C38
n0
C39
n0
C40
n0
C41
n0
C42
n0
C43
n0
C44
n0
C45
n0
C46
n0
C47
n0
C48
n0
C49
n0
C50
n0
C51
n0
C52
n0
C53
n0
C54
n0
C55
n0
C56
n0
C57
n0
C58
n0
C59
n0
C60
n0
C61
n0
C62
n0
C63
n0
C64
n0
C65
n0
C66
n0
C67
n0
C68
n0
C69
n0
C70
n0
C71
n0
C72
n0
C73
n0
C74
n0
C75
n0
C76
n0
C77
n0
C78
n0
C79
n0
C80
n0
C81
n0
C82
n0
C83
n0
C84
n0
C85
n0
C86
n0
C87
n0
C88
n0
C89
n0
C90
n0
C91
n0
C92
n0
C93
n0
C94
n0
C95
n0
C96
n0
C97
n0
C98
n0
C99
n0
C100
n0
C101
n0
C102
n0
C103
n0
C104
n0
C105
n0
C106
n0
C107
n0
C108
n0
C109
n0
C110
n0
C111
n0
C112
n0
C113
n0
C114
n0
C115
n0
C116
n0
C117
n0
C118
n0
C119
n0
C120
n0
C121
n0
C122
n0
C123
n0
C124
n0
C125
n0
C126
n0
C127
n0
C128
n0
C129
n0
C130
n0
C131
n0
C132
n0
C133
n0
C134
n0
C135
n0
C136
n0
C137
n0
C138
n0
C139
n0
C140
n0
C141
n0
C142
n0
C143
n0
C144
n0
C145
n0
C146
n0
C147
n0
C148
n0
C149
n0
C150
n0
C151
n0
C152
n0
C153
n0
O0 0
n0
k344
2
4
6
8
10
12
14
16
18
20
22
24
26
28
30
32
34
36
38
40
42
44
46
48
50
52
54
56
58
60
62
64
66
68
70
72
74
76
78
80
82
84
86
88
90
92
94
96
98
106
114
122
130
138
146
154
156
158
160
162
164
166
168
179
190
201
212
223
234
245
256
267
278
289
300
311
322
333
344
355
366
377
388
399
410
421
432
443
454
465
476
487
498
509
520
531
542
553
564
575
586
597
608
619
630
641
652
663
674
685
696
707
718
729
740
751
762
773
784
795
806
817
828
839
850
861
872
883
889
895
901
907
913
919
925
931
937
943
949
955
961
967
973
979
985
991
997
1003
1009
1015
1021
1027
1033
1039
1045
1051
1057
1063
1069
1075
1081
1087
1093
1099
1105
1111
1117
1123
1129
1135
1141
1147
1153
1159
1165
1171
1177
1183
1189
1195
1201
1207
1213
1219
1225
1231
1237
1243
1249
1255
1261
1267
1273
1279
1285
1291
1297
1303
1309
1315
1321
1327
1333
1339
1345
1351
1357
1363
1369
1375
1381
1387
1393
1399
1405
1411
1417
1423
1429
1435
1441
1447
1453
1459
1465
1471
1477
1483
1489
1495
1501
1507
1513
1519
1525
1531
1537
1543
1549
1555
1561
1567
1573
1579
1585
1591
1597
1603
1609
1615
1621
1627
1633
1639
1645
1651
1657
1663
1669
1675
1681
1687
1693
1699
1705
1711
1717
1723
1729
1735
1741
1747
1753
1759
1765
1771
1777
1783
1789
1795
1801
1807
1813
1819
1825
1831
1837
1843
1849
1855
1861
1867
1873
1879
1885
1891
1897
1903
1909
1915
1921
1927
1933
1939
1945
1951
1957
1963
1969
1975
1981
1987
1993
1999
2005
2011
2017
2023
2029
2035
2041
2047
2053
2059
2065
2071
2077
2083
2089
2095
2101
2107
2113
2119
2125
2131
2137
2143
2149
2155
2161
2167
2173
2179
J0 121
0 0
1 0
2 0
3 0
4 0
5 0
6 0
49 0
50 0
51 0
52 0
53 0
54 0
55 0
63 1
64 2
65 3
66 4
67 5
68 6
69 7
70 8
71 9
72 10
73 11
74 12
75 13
76 14
77 15
78 1
79 2
80 3
81 4
82 5
83 6
84 7
85 8
86 9
87 10
88 11
89 12
90 1
91 2
92 3
93 4
94 5
95 6
96 7
97 8
98 9
99 10
100 11
101 1
102 2
103 3
104 4
105 5
106 6
107 7
108 8
109 1
110 2
111 3
112 4
113 5
114 6
115 7
116 8
117 1
118 2
119 3
120 4
121 5
122 6
123 1
124 2
125 3
126 4
127 5
128 1
129 2
130 3
131 4
132 5
133 6
134 1
135 2
136 3
137 4
138 5
139 6
140 1
141 2
142 3
143 4
144 5
145 6
146 1
147 2
148 3
149 4
150 5
151 6
152 1
153 2
154 3
155 4
156 5
157 6
158 1
159 2
160 3
161 4
162 5
163 6
164 1
165 2
166 3
167 4
168 5
169 6
J1 114
7 0
8 0
9 0
10 0
11 0
12 0
13 0
49 0
50 0
51 0
52 0
53 0
54 0
55 0
63 1
64 2
65 3
66 4
67 5
68 6
69 7
70 8
71 9
72 10
73 11
74 12
75 13
76 14
77 15
78 1
79 2
80 3
81 4
82 5
83 6
84 7
85 8
86 9
87 10
88 11
89 12
90 1
91 2
92 3
93 4
94 5
95 6
96 7
97 8
98 9
99 10
100 11
101 1
102 2
103 3
104 4
105 5
106 6
107 7
108 8
109 1
110 2
111 3
112 4
113 5
114 6
115 7
116 8
117 1
118 2
119 3
120 4
121 5
122 6
123 1
124 2
125 3
126 4
127 5
170 1
171 2
172 3
173 4
174 5
175 1
176 2
177 3
178 4
179 5
180 1
181 2
182 3
183 4
184 5
185 1
186 2
187 3
188 4
189 5
190 1
191 2
192 3
193 4
194 5
195 1
196 2
197 3
198 4
199 5
200 1
201 2
202 3
203 4
204 5
J2 107
14 0
15 0
16 0
17 0
18 0
19 0
20 0
49 0
50 0
51 0
52 0
53 0
54 0
55 0
63 1
64 2
65 3
66 4
67 5
68 6
69 7
70 8
71 9
72 10
73 11
74 12
75 13
76 14
77 15
78 1
79 2
80 3
81 4
82 5
83 6
84 7
85 8
86 9
87 10
88 11
89 12
90 1
91 2
92 3
93 4
94 5
95 6
96 7
97 8
98 9
99 10
100 11
101 1
102 2
103 3
104 4
105 5
106 6
107 7
108 8
109 1
110 2
111 3
112 4
113 5
114 6
115 7
116 8
117 1
118 2
119 3
120 4
121 5
122 6
123 1
124 2
125 3
126 4
127 5
205 1
206 2
207 3
208 4
209 1
210 2
211 3
212 4
213 1
214 2
215 3
216 4
217 1
218 2
219 3
220 4
221 1
222 2
223 3
224 4
225 1
226 2
227 3
228 4
229 1
230 2
231 3
232 4
J3 107
21 0
22 0
23 0
24 0
25 0
26 0
27 0
49 0
50 0
51 0
52 0
53 0
54 0
55 0
63 1
64 2
65 3
66 4
67 5
68 6
69 7
70 8
71 9
72 10
73 11
74 12
75 13
76 14
77 15
78 1
79 2
80 3
81 4
82 5
83 6
84 7
85 8
86 9
87 10
88 11
89 12
90 1
91 2
92 3
93 4
94 5
95 6
96 7
97 8
98 9
99 10
100 11
101 1
102 2
103 3
104 4
105 5
106 6
107 7
108 8
109 1
110 2
111 3
112 4
113 5
114 6
115 7
116 8
117 1
118 2
119 3
120 4
121 5
122 6
123 1
124 2
125 3
126 4
127 5
233 1
234 2
235 3
236 4
237 1
238 2
239 3
240 4
241 1
242 2
243 3
244 4
245 1
246 2
247 3
248 4
249 1
250 2
251 3
252 4
253 1
254 2
255 3
256 4
257 1
258 2
259 3
260 4
J4 107
28 0
29 0
30 0
31 0
32 0
33 0
34 0
49 0
50 0
51 0
52 0
53 0
54 0
55 0
63 1
64 2
65 3
66 4
67 5
68 6
69 7
70 8
71 9
72 10
73 11
74 12
75 13
76 14
77 15
78 1
79 2
80 3
81 4
82 5
83 6
84 7
85 8
86 9
87 10
88 11
89 12
90 1
91 2
92 3
93 4
94 5
95 6
96 7
97 8
98 9
99 10
100 11
101 1
102 2
103 3
104 4
105 5
106 6
107 7
108 8
109 1
110 2
111 3
112 4
113 5
114 6
115 7
116 8
117 1
118 2
119 3
120 4
121 5
122 6
123 1
124 2
125 3
126 4
127 5
261 1
262 2
263 3
264 4
265 1
266 2
267 3
268 4
269 1
270 2
271 3
272 4
273 1
274 2
275 3
276 4
277 1
278 2
279 3
280 4
281 1
282 2
283 3
284 4
285 1
286 2
287 3
288 4
J5 107
35 0
36 0
37 0
38 0
39 0
40 0
41 0
49 0
50 0
51 0
52 0
53 0
54 0
55 0
63 1
64 2
65 3
66 4
67 5
68 6
69 7
70 8
71 9
72 10
73 11
74 12
75 13
76 14
77 15
78 1
79 2
80 3
81 4
82 5
83 6
84 7
85 8
86 9
87 10
88 11
89 12
90 1
91 2
92 3
93 4
94 5
95 6
96 7
97 8
98 9
99 10
100 11
101 1
102 2
103 3
104 4
105 5
106 6
107 7
108 8
109 1
110 2
111 3
112 4
113 5
114 6
115 7
116 8
117 1
118 2
119 3
120 4
121 5
122 6
123 1
124 2
125 3
126 4
127 5
289 1
290 2
291 3
292 4
293 1
294 2
295 3
296 4
297 1
298 2
299 3
300 4
301 1
302 2
303 3
304 4
305 1
306 2
307 3
308 4
309 1
310 2
311 3
312 4
313 1
314 2
315 3
316 4
J6 107
42 0
43 0
44 0
45 0
46 0
47 0
48 0
49 0
50 0
51 0
52 0
53 0
54 0
55 0
63 1
64 2
65 3
66 4
67 5
68 6
69 7
70 8
71 9
72 10
73 11
74 12
75 13
76 14
77 15
78 1
79 2
80 3
81 4
82 5
83 6
84 7
85 8
86 9
87 10
88 11
89 12
90 1
91 2
92 3
93 4
94 5
95 6
96 7
97 8
98 9
99 10
100 11
101 1
102 2
103 3
104 4
105 5
106 6
107 7
108 8
109 1
110 2
111 3
112 4
113 5
114 6
115 7
116 8
117 1
118 2
119 3
120 4
121 5
122 6
123 1
124 2
125 3
126 4
127 5
317 1
318 2
319 3
320 4
321 1
322 2
323 3
324 4
325 1
326 2
327 3
328 4
329 1
330 2
331 3
332 4
333 1
334 2
335 3
336 4
337 1
338 2
339 3
340 4
341 1
342 2
343 3
344 4
J7 31
128 5.5e2
129 1.1e3
130 1.65e3
131 2.2e3
132 2.75e3
133 3.3e3
170 6.3e2
171 1.26e3
172 1.89e3
173 2.52e3
174 3.15e3
205 685
206 1.37e3
207 2055
208 2.74e3
233 7.2e2
234 1.44e3
235 2.16e3
236 2.88e3
261 7.6e2
262 1.52e3
263 2.28e3
264 3.04e3
289 8.1e2
290 1.62e3
291 2.43e3
292 3.24e3
317 8.5e2
318 1.7e3
319 2.55e3
320 3.4e3
J8 31
134 5.5e2
135 1.1e3
136 1.65e3
137 2.2e3
138 2.75e3
139 3.3e3
175 6.3e2
176 1.26e3
177 1.89e3
178 2.52e3
179 3.15e3
209 685
210 1.37e3
211 2055
212 2.74e3
237 7.2e2
238 1.44e3
239 2.16e3
240 2.88e3
265 7.6e2
266 1.52e3
267 2.28e3
268 3.04e3
293 8.1e2
294 1.62e3
295 2.43e3
296 3.24e3
321 8.5e2
322 1.7e3
323 2.55e3
324 3.4e3
J9 31
140 5.5e2
141 1.1e3
142 1.65e3
143 2.2e3
144 2.75e3
145 3.3e3
180 6.3e2
181 1.26e3
182 1.89e3
183 2.52e3
184 3.15e3
213 685
214 1.37e3
215 2055
216 2.74e3
241 7.2e2
242 1.44e3
243 2.16e3
244 2.88e3
269 7.6e2
270 1.52e3
271 2.28e3
272 3.04e3
297 8.1e2
298 1.62e3
299 2.43e3
300 3.24e3
325 8.5e2
326 1.7e3
327 2.55e3
328 3.4e3
J10 31
146 5.5e2
147 1.1e3
148 1.65e3
149 2.2e3
150 2.75e3
151 3.3e3
185 6.3e2
186 1.26e3
187 1.89e3
188 2.52e3
189 3.15e3
217 685
218 1.37e3
219 2055
220 2.74e3
245 7.2e2
246 1.44e3
247 2.16e3
248 2.88e3
273 7.6e2
274 1.52e3
275 2.28e3
276 3.04e3
301 8.1e2
302 1.62e3
303 2.43e3
304 3.24e3
329 8.5e2
330 1.7e3
331 2.55e3
332 3.4e3
J11 31
152 5.5e2
153 1.1e3
154 1.65e3
155 2.2e3
156 2.75e3
157 3.3e3
190 6.3e2
191 1.26e3
192 1.89e3
193 2.52e3
194 3.15e3
221 685
222 1.37e3
223 2055
224 2.74e3
249 7.2e2
250 1.44e3
251 2.16e3
252 2.88e3
277 7.6e2
278 1.52e3
279 2.28e3
280 3.04e3
305 8.1e2
306 1.62e3
307 2.43e3
308 3.24e3
333 8.5e2
334 1.7e3
335 2.55e3
336 3.4e3
J12 31
158 5.5e2
159 1.1e3
160 1.65e3
161 2.2e3
162 2.75e3
163 3.3e3
195 6.3e2
196 1.26e3
197 1.89e3
198 2.52e3
199 3.15e3
225 685
226 1.37e3
227 2055
228 2.74e3
253 7.2e2
254 1.44e3
255 2.16e3
256 2.88e3
281 7.6e2
282 1.52e3
283 2.28e3
284 3.04e3
309 8.1e2
310 1.62e3
311 2.43e3
312 3.24e3
337 8.5e2
338 1.7e3
339 2.55e3
340 3.4e3
J13 31
164 5.5e2
165 1.1e3
166 1.65e3
167 2.2e3
168 2.75e3
169 3.3e3
200 6.3e2
201 1.26e3
202 1.89e3
203 2.52e3
204 3.15e3
229 685
230 1.37e3
231 2055
232 2.74e3
257 7.2e2
258 1.44e3
259 2.16e3
260 2.88e3
285 7.6e2
286 1.52e3
287 2.28e3
288 3.04e3
313 8.1e2
314 1.62e3
315 2.43e3
316 3.24e3
341 8.5e2
342 1.7e3
343 2.55e3
344 3.4e3
J14 31
128 -5.5e2
129 -1.1e3
130 -1.65e3
131 -2.2e3
132 -2.75e3
133 -3.3e3
170 -6.3e2
171 -1.26e3
172 -1.89e3
173 -2.52e3
174 -3.15e3
205 -685
206 -1.37e3
207 -2055
208 -2.74e3
233 -7.2e2
234 -1.44e3
235 -2.16e3
236 -2.88e3
261 -7.6e2
262 -1.52e3
263 -2.28e3
264 -3.04e3
289 -8.1e2
290 -1.62e3
291 -2.43e3
292 -3.24e3
317 -8.5e2
318 -1.7e3
319 -2.55e3
320 -3.4e3
J15 31
134 -5.5e2
135 -1.1e3
136 -1.65e3
137 -2.2e3
138 -2.75e3
139 -3.3e3
175 -6.3e2
176 -1.26e3
177 -1.89e3
178 -2.52e3
179 -3.15e3
209 -685
210 -1.37e3
211 -2055
212 -2.74e3
237 -7.2e2
238 -1.44e3
239 -2.16e3
240 -2.88e3
265 -7.6e2
266 -1.52e3
267 -2.28e3
268 -3.04e3
293 -8.1e2
294 -1.62e3
295 -2.43e3
296 -3.24e3
321 -8.5e2
322 -1.7e3
323 -2.55e3
324 -3.4e3
J16 31
140 -5.5e2
141 -1.1e3
142 -1.65e3
143 -2.2e3
144 -2.75e3
145 -3.3e3
180 -6.3e2
181 -1.26e3
182 -1.89e3
183 -2.52e3
184 -3.15e3
213 -685
214 -1.37e3
215 -2055
216 -2.74e3
241 -7.2e2
242 -1.44e3
243 -2.16e3
244 -2.88e3
269 -7.6e2
270 -1.52e3
271 -2.28e3
272 -3.04e3
297 -8.1e2
298 -1.62e3
299 -2.43e3
300 -3.24e3
325 -8.5e2
326 -1.7e3
327 -2.55e3
328 -3.4e3
J17 31
146 -5.5e2
147 -1.1e3
148 -1.65e3
149 -2.2e3
150 -2.75e3
151 -3.3e3
185 -6.3e2
186 -1.26e3
187 -1.89e3
188 -2.52e3
189 -3.15e3
217 -685
218 -1.37e3
219 -2055
220 -2.74e3
245 -7.2e2
246 -1.44e3
247 -2.16e3
248 -2.88e3
273 -7.6e2
274 -1.52e3
275 -2.28e3
276 -3.04e3
301 -8.1e2
302 -1.62e3
303 -2.43e3
304 -3.24e3
329 -8.5e2
330 -1.7e3
331 -2.55e3
332 -3.4e3
J18 31
152 -5.5e2
153 -1.1e3
154 -1.65e3
155 -2.2e3
156 -2.75e3
157 -3.3e3
190 -6.3e2
191 -1.26e3
192 -1.89e3
193 -2.52e3
194 -3.15e3
221 -685
222 -1.37e3
223 -2055
224 -2.74e3
249 -7.2e2
250 -1.44e3
251 -2.16e3
252 -2.88e3
277 -7.6e2
278 -1.52e3
279 -2.28e3
280 -3.04e3
305 -8.1e2
306 -1.62e3
307 -2.43e3
308 -3.24e3
333 -8.5e2
334 -1.7e3
335 -2.55e3
336 -3.4e3
J19 31
158 -5.5e2
159 -1.1e3
160 -1.65e3
161 -2.2e3
162 -2.75e3
163 -3.3e3
195 -6.3e2
196 -1.26e3
197 -1.89e3
198 -2.52e3
199 -3.15e3
225 -685
226 -1.37e3
227 -2055
228 -2.74e3
253 -7.2e2
254 -1.44e3
255 -2.16e3
256 -2.88e3
281 -7.6e2
282 -1.52e3
283 -2.28e3
284 -3.04e3
309 -8.1e2
310 -1.62e3
311 -2.43e3
312 -3.24e3
337 -8.5e2
338 -1.7e3
339 -2.55e3
340 -3.4e3
J20 31
164 -5.5e2
165 -1.1e3
166 -1.65e3
167 -2.2e3
168 -2.75e3
169 -3.3e3
200 -6.3e2
201 -1.26e3
202 -1.89e3
203 -2.52e3
204 -3.15e3
229 -685
230 -1.37e3
231 -2055
232 -2.74e3
257 -7.2e2
258 -1.44e3
259 -2.16e3
260 -2.88e3
285 -7.6e2
286 -1.52e3
287 -2.28e3
288 -3.04e3
313 -8.1e2
314 -1.62e3
315 -2.43e3
316 -3.24e3
341 -8.5e2
342 -1.7e3
343 -2.55e3
344 -3.4e3
J21 31
128 1
129 2
130 3
131 4
132 5
133 6
170 1
171 2
172 3
173 4
174 5
205 1
206 2
207 3
208 4
233 1
234 2
235 3
236 4
261 1
262 2
263 3
264 4
289 1
290 2
291 3
292 4
317 1
318 2
319 3
320 4
J22 31
134 1
135 2
136 3
137 4
138 5
139 6
175 1
176 2
177 3
178 4
179 5
209 1
210 2
211 3
212 4
237 1
238 2
239 3
240 4
265 1
266 2
267 3
268 4
293 1
294 2
295 3
296 4
321 1
322 2
323 3
324 4
J23 31
140 1
141 2
142 3
143 4
144 5
145 6
180 1
181 2
182 3
183 4
184 5
213 1
214 2
215 3
216 4
241 1
242 2
243 3
244 4
269 1
270 2
271 3
272 4
297 1
298 2
299 3
300 4
325 1
326 2
327 3
328 4
J24 31
146 1
147 2
148 3
149 4
150 5
151 6
185 1
186 2
187 3
188 4
189 5
217 1
218 2
219 3
220 4
245 1
246 2
247 3
248 4
273 1
274 2
275 3
276 4
301 1
302 2
303 3
304 4
329 1
330 2
331 3
332 4
J25 31
152 1
153 2
154 3
155 4
156 5
157 6
190 1
191 2
192 3
193 4
194 5
221 1
222 2
223 3
224 4
249 1
250 2
251 3
252 4
277 1
278 2
279 3
280 4
305 1
306 2
307 3
308 4
333 1
334 2
335 3
336 4
J26 31
158 1
159 2
160 3
161 4
162 5
163 6
195 1
196 2
197 3
198 4
199 5
225 1
226 2
227 3
228 4
253 1
254 2
255 3
256 4
281 1
282 2
283 3
284 4
309 1
310 2
311 3
312 4
337 1
338 2
339 3
340 4
J27 31
164 1
165 2
166 3
167 4
168 5
169 6
200 1
201 2
202 3
203 4
204 5
229 1
230 2
231 3
232 4
257 1
258 2
259 3
260 4
285 1
286 2
287 3
288 4
313 1
314 2
315 3
316 4
341 1
342 2
343 3
344 4
J28 16
56 1
63 -1
64 -2
65 -3
66 -4
67 -5
68 -6
69 -7
70 -8
71 -9
72 -10
73 -11
74 -12
75 -13
76 -14
77 -15
J29 13
57 1
78 -1
79 -2
80 -3
81 -4
82 -5
83 -6
84 -7
85 -8
86 -9
87 -10
88 -11
89 -12
J30 12
58 1
90 -1
91 -2
92 -3
93 -4
94 -5
95 -6
96 -7
97 -8
98 -9
99 -10
100 -11
J31 9
59 1
101 -1
102 -2
103 -3
104 -4
105 -5
106 -6
107 -7
108 -8
J32 9
60 1
109 -1
110 -2
111 -3
112 -4
113 -5
114 -6
115 -7
116 -8
J33 7
61 1
117 -1
118 -2
119 -3
120 -4
121 -5
122 -6
J34 6
62 1
123 -1
124 -2
125 -3
126 -4
127 -5
J35 16
56 -15
63 1
64 2
65 3
66 4
67 5
68 6
69 7
70 8
71 9
72 10
73 11
74 12
75 13
76 14
77 15
J36 13
57 -12
78 1
79 2
80 3
81 4
82 5
83 6
84 7
85 8
86 9
87 10
88 11
89 12
J37 12
58 -11
90 1
91 2
92 3
93 4
94 5
95 6
96 7
97 8
98 9
99 10
100 11
J38 9
59 -8
101 1
102 2
103 3
104 4
105 5
106 6
107 7
108 8
J39 9
60 -8
109 1
110 2
111 3
112 4
113 5
114 6
115 7
116 8
J40 7
61 -6
117 1
118 2
119 3
120 4
121 5
122 6
J41 6
62 -5
123 1
124 2
125 3
126 4
127 5
J42 16
49 1
63 -3
64 -8
65 -15
66 -24
67 -35
68 -48
69 -63
70 -80
71 -99
72 -1.2e2
73 -143
74 -168
75 -195
76 -224
77 -255
J43 13
50 1
78 -3
79 -8
80 -15
81 -24
82 -35
83 -48
84 -63
85 -80
86 -99
87 -1.2e2
88 -143
89 -168
J44 12
51 1
90 -3
91 -8
92 -15
93 -24
94 -35
95 -48
96 -63
97 -80
98 -99
99 -1.2e2
100 -143
J45 9
52 1
101 -3
102 -8
103 -15
104 -24
105 -35
106 -48
107 -63
108 -80
J46 9
53 1
109 -3
110 -8
111 -15
112 -24
113 -35
114 -48
115 -63
116 -80
J47 7
54 1
117 -3
118 -8
119 -15
120 -24
121 -35
122 -48
J48 6
55 1
123 -3
124 -8
125 -15
126 -24
127 -35
J49 15
63 1
64 1
65 1
66 1
67 1
68 1
69 1
70 1
71 1
72 1
73 1
74 1
75 1
76 1
77 1
J50 12
78 1
79 1
80 1
81 1
82 1
83 1
84 1
85 1
86 1
87 1
88 1
89 1
J51 11
90 1
91 1
92 1
93 1
94 1
95 1
96 1
97 1
98 1
99 1
100 1
J52 8
101 1
102 1
103 1
104 1
105 1
106 1
107 1
108 1
J53 8
109 1
110 1
111 1
112 1
113 1
114 1
115 1
116 1
J54 6
117 1
118 1
119 1
120 1
121 1
122 1
J55 5
123 1
124 1
125 1
126 1
127 1
J56 7
0 1
128 -3
129 -8
130 -15
131 -24
132 -35
133 -48
J57 7
1 1
134 -3
135 -8
136 -15
137 -24
138 -35
139 -48
J58 7
2 1
140 -3
141 -8
142 -15
143 -24
144 -35
145 -48
J59 7
3 1
146 -3
147 -8
148 -15
149 -24
150 -35
151 -48
J60 7
4 1
152 -3
153 -8
154 -15
155 -24
156 -35
157 -48
J61 7
5 1
158 -3
159 -8
160 -15
161 -24
162 -35
163 -48
J62 7
6 1
164 -3
165 -8
166 -15
167 -24
168 -35
169 -48
J63 6
7 1
170 -3
171 -8
172 -15
173 -24
174 -35
J64 6
8 1
175 -3
176 -8
177 -15
178 -24
179 -35
J65 6
9 1
180 -3
181 -8
182 -15
183 -24
184 -35
J66 6
10 1
185 -3
186 -8
187 -15
188 -24
189 -35
J67 6
11 1
190 -3
191 -8
192 -15
193 -24
194 -35
J68 6
12 1
195 -3
196 -8
197 -15
198 -24
199 -35
J69 6
13 1
200 -3
201 -8
202 -15
203 -24
204 -35
J70 5
14 1
205 -3
206 -8
207 -15
208 -24
J71 5
15 1
209 -3
210 -8
211 -15
212 -24
J72 5
16 1
213 -3
214 -8
215 -15
216 -24
J73 5
17 1
217 -3
218 -8
219 -15
220 -24
J74 5
18 1
221 -3
222 -8
223 -15
224 -24
J75 5
19 1
225 -3
226 -8
227 -15
228 -24
J76 5
20 1
229 -3
230 -8
231 -15
232 -24
J77 5
21 1
233 -3
234 -8
235 -15
236 -24
J78 5
22 1
237 -3
238 -8
239 -15
240 -24
J79 5
23 1
241 -3
242 -8
243 -15
244 -24
J80 5
24 1
245 -3
246 -8
247 -15
248 -24
J81 5
25 1
249 -3
250 -8
251 -15
252 -24
J82 5
26 1
253 -3
254 -8
255 -15
256 -24
J83 5
27 1
257 -3
258 -8
259 -15
260 -24
J84 5
28 1
261 -3
262 -8
263 -15
264 -24
J85 5
29 1
265 -3
266 -8
267 -15
268 -24
J86 5
30 1
269 -3
270 -8
271 -15
272 -24
J87 5
31 1
273 -3
274 -8
275 -15
276 -24
J88 5
32 1
277 -3
278 -8
279 -15
280 -24
J89 5
33 1
281 -3
282 -8
283 -15
284 -24
J90 5
34 1
285 -3
286 -8
287 -15
288 -24
J91 5
35 1
289 -3
290 -8
291 -15
292 -24
J92 5
36 1
293 -3
294 -8
295 -15
296 -24
J93 5
37 1
297 -3
298 -8
299 -15
300 -24
J94 5
38 1
301 -3
302 -8
303 -15
304 -24
J95 5
39 1
305 -3
306 -8
307 -15
308 -24
J96 5
40 1
309 -3
310 -8
311 -15
312 -24
J97 5
41 1
313 -3
314 -8
315 -15
316 -24
J98 5
42 1
317 -3
318 -8
319 -15
320 -24
J99 5
43 1
321 -3
322 -8
323 -15
324 -24
J100 5
44 1
325 -3
326 -8
327 -15
328 -24
J101 5
45 1
329 -3
330 -8
331 -15
332 -24
J102 5
46 1
333 -3
334 -8
335 -15
336 -24
J103 5
47 1
337 -3
338 -8
339 -15
340 -24
J104 5
48 1
341 -3
342 -8
343 -15
344 -24
J105 6
128 1
129 1
130 1
131 1
132 1
133 1
J106 6
134 1
135 1
136 1
137 1
138 1
139 1
J107 6
140 1
141 1
142 1
143 1
144 1
145 1
J108 6
146 1
147 1
148 1
149 1
150 1
151 1
J109 6
152 1
153 1
154 1
155 1
156 1
157 1
J110 6
158 1
159 1
160 1
161 1
162 1
163 1
J111 6
164 1
165 1
166 1
167 1
168 1
169 1
J112 5
170 1
171 1
172 1
173 1
174 1
J113 5
175 1
176 1
177 1
178 1
179 1
J114 5
180 1
181 1
182 1
183 1
184 1
J115 5
185 1
186 1
187 1
188 1
189 1
J116 5
190 1
191 1
192 1
193 1
194 1
J117 5
195 1
196 1
197 1
198 1
199 1
J118 5
200 1
201 1
202 1
203 1
204 1
J119 4
205 1
206 1
207 1
208 1
J120 4
209 1
210 1
211 1
212 1
J121 4
213 1
214 1
215 1
216 1
J122 4
217 1
218 1
219 1
220 1
J123 4
221 1
222 1
223 1
224 1
J124 4
225 1
226 1
227 1
228 1
J125 4
229 1
230 1
231 1
232 1
J126 4
233 1
234 1
235 1
236 1
J127 4
237 1
238 1
239 1
240 1
J128 4
241 1
242 1
243 1
244 1
J129 4
245 1
246 1
247 1
248 1
J130 4
249 1
250 1
251 1
252 1
J131 4
253 1
254 1
255 1
256 1
J132 4
257 1
258 1
259 1
260 1
J133 4
261 1
262 1
263 1
264 1
J134 4
265 1
266 1
267 1
268 1
J135 4
269 1
270 1
271 1
272 1
J136 4
273 1
274 1
275 1
276 1
J137 4
277 1
278 1
279 1
280 1
J138 4
281 1
282 1
283 1
284 1
J139 4
285 1
286 1
287 1
288 1
J140 4
289 1
290 1
291 1
292 1
J141 4
293 1
294 1
295 1
296 1
J142 4
297 1
298 1
299 1
300 1
J143 4
301 1
302 1
303 1
304 1
J144 4
305 1
306 1
307 1
308 1
J145 4
309 1
310 1
311 1
312 1
J146 4
313 1
314 1
315 1
316 1
J147 4
317 1
318 1
319 1
320 1
J148 4
321 1
322 1
323 1
324 1
J149 4
325 1
326 1
327 1
328 1
J150 4
329 1
330 1
331 1
332 1
J151 4
333 1
334 1
335 1
336 1
J152 4
337 1
338 1
339 1
340 1
J153 4
341 1
342 1
343 1
344 1
G0 72
56 .1
57 .2
58 .3
59 .4
60 .5
61 .6
62 .7
63 1
64 2
65 3
66 4
67 5
68 6
69 7
70 8
71 9
72 10
73 11
74 12
75 13
76 14
77 15
78 1
79 2
80 3
81 4
82 5
83 6
84 7
85 8
86 9
87 10
88 11
89 12
90 1
91 2
92 3
93 4
94 5
95 6
96 7
97 8
98 9
99 10
100 11
101 1
102 2
103 3
104 4
105 5
106 6
107 7
108 8
109 1
110 2
111 3
112 4
113 5
114 6
115 7
116 8
117 1
118 2
119 3
120 4
121 5
122 6
123 1
124 2
125 3
126 4
127 5
